[[14, 13, 52, 11, 51, 12, 33, 43, 10, 9, 8, 41, 19, 45], [3, 18, 31, 17, 21, 42, 7, 2, 30, 23, 20, 50, 29], [16, 46, 44, 22, 32, 49, 36, 35, 34, 39, 37, 40, 38, 48, 24, 5, 15, 6, 4, 25, 28, 27, 26, 47]]